6 16 4 10
12 15 2 18 5 16 14 12 4 5 10 9 6 8 6 4 
7.03 6.89 3.13 4.82 3.46 1.37 4.05 1.96 1.07 4.55 4.07 5.73 3.27 1.7 5.43 1.86 
0.2 2.04 0.42 4.15 2.65 0.48 2.09 5.76 0.06 4.36 1.21 7.48 3.56 1.13 6.48 1.85 
6.75 3.29 5.68 2.66 6.07 4.54 6.74 0.1 3.59 6.56 4.27 2.37 1.53 7.25 4.67 4.01 
6.65 7.27 1.89 7.55 6.52 0.45 1.23 2.84 7.53 5.09 6.53 5.57 6.81 5.32 3.36 4.82 
4 4 4 4 4 4 4 4 4 4 4 4 4 4 4 4 
7.79 0.4 0.63 2.91 2.96 2.77 4.66 2.65 0.46 3.11 2.55 4.45 0.08 0.36 2.32 3.06 
1 1 1 1 1 1 1 1 1 1 1 1 1 1 1 1 
1 1 1 1 1 1 1 1 1 1 1 1 1 1 1 1 
1 1 1 1 1 1 1 1 1 1 1 1 1 1 1 1 
1 1 1 1 1 1 1 1 1 1 1 1 1 1 1 1 
1 1 1 1 1 1 1 1 1 1 1 1 1 1 1 1 
1 1 1 1 1 1 1 1 1 1 1 1 1 1 1 1 
0.01 0.01 0.01 0.01 0.01 0.01 0.01 0.01 0.01 0.01 0.01 0.01 0.01 0.01 0.01 0.01 
0.02 0.02 0.02 0.02 0.02 0.02 0.02 0.02 0.02 0.02 0.02 0.02 0.02 0.02 0.02 0.02 
0.03 0.03 0.03 0.03 0.03 0.03 0.03 0.03 0.03 0.03 0.03 0.03 0.03 0.03 0.03 0.03 
0.04 0.04 0.04 0.04 0.04 0.04 0.04 0.04 0.04 0.04 0.04 0.04 0.04 0.04 0.04 0.04 
0.05 0.05 0.05 0.05 0.05 0.05 0.05 0.05 0.05 0.05 0.05 0.05 0.05 0.05 0.05 0.05 
1 1 1 1 1 1 1 1 1 1 1 1 1 1 1 1 
